CNFs/0-.cnf
c ind 1 2 3 4 5 6 7 8 9 10 11 12 13 14 15 16 17 18 19 20 21 22 23 24 25 26 27 28 29 30 31 32 33 34 35 36 37 38 39 40 41 42 43 44 45 46 47 48 49 50 51 52 53 54 55 56 57 58 59 60 61 62 63 64 65 66 67 68 69 70 71 72 73 74 75 76 77 78 79 80 81 82 83 84 85 86 87 88 89 90 91 92 93 94 95 96 97 98 99 100 101 102 103 104 105 106 107 108 109 110 111 112 113 114 115 116 117 118 119 120 121 122 123 124 125 126 127 128 129 130 131 132 133 134 135 136 137 138 139 140 141 142 143 144 145 146 147 148 149 150 151 152 153 0
p cnf 157 44
2 0
3 0
130 0
6 0
134 0
8 0
140 0
13 0
145 0
20 0
22 0
150 0
154 0
29 0
34 0
39 0
44 0
46 0
51 0
57 0
61 0
67 0
72 0
75 0
82 0
84 0
93 0
94 0
101 0
106 0
110 0
116 0
122 0
124 0
-48 -16 -11 -3 -2 0
-124 -121 -11 -102 -3 -2 0
-124 -121 156 -3 -2 0
-61 -56 -116 -51 -110 -46 -106 -42 -101 -36 -97 -33 -156 -91 -27 -154 -87 -23 -150 -18 -81 -145 -14 -77 -140 -11 -66 -136 -71 -4 -130 0
-61 -57 -115 -51 -48 -110 -42 -105 -38 -101 -71 -34 -97 -29 -156 -91 -154 -87 -23 -150 -20 -145 -80 -14 -77 -140 -11 -135 -4 -67 -130 0
-62 -55 -52 -114 -111 -46 -43 -104 -102 -36 -34 -95 -92 -27 -156 -25 -152 -85 -148 -82 -18 -16 -143 -140 -75 -10 -72 -7 -134 -130 -65 0
-16 -141 -156 -150 -34 -102 0
-16 -3 -25 157 -2 0
-128 -124 -60 -58 -118 -116 -52 -48 -108 -43 -106 -38 -100 -34 -97 -70 -29 -157 -90 -88 -152 -20 -148 -80 -143 -78 -12 -138 -134 -5 -68 0
-123 -122 -59 -58 -113 -49 -111 -48 -41 -103 -39 -100 -32 -94 -30 -157 -69 -154 -89 -150 -85 -21 -79 -143 -141 -12 -75 -7 -133 -132 -67 0
